c preprocessed version of celar08pp, 76 vertices, 421 edges
p td 76 421
0 1
0 2
16 0
32 0
61 0
60 0
1 2
16 1
32 1
61 1
60 1
3 2
13 2
57 2
2 58
16 2
14 2
35 2
38 2
34 2
4 3
15 3
12 3
3 42
3 45
3 47
3 44
3 57
3 50
3 13
3 53
3 54
3 64
3 58
3 59
3 65
16 3
14 3
35 3
38 3
33 3
41 3
40 3
34 3
56 3
60 3
5 4
11 4
37 4
43 4
46 4
4 42
4 45
4 47
4 50
4 51
4 64
4 36
4 52
4 65
4 66
4 44
4 49
35 4
38 4
40 4
34 4
39 4
63 4
56 4
6 5
5 11
5 43
5 12
5 45
5 46
5 47
5 42
5 44
5 49
5 50
5 51
5 13
5 54
5 53
5 52
5 48
5 55
5 64
5 65
5 66
37 5
33 5
41 5
40 5
34 5
56 5
60 5
6 7
37 6
22 6
7 8
67 7
69 7
22 7
8 9
8 27
67 8
69 8
26 8
9 10
9 27
25 9
26 9
11 10
43 10
42 10
10 36
49 10
32 10
61 10
12 11
11 43
11 42
11 44
11 49
11 64
11 66
11 54
11 48
11 55
33 11
41 11
34 11
12 13
12 36
12 46
12 50
12 53
12 54
12 51
12 64
12 58
12 65
12 48
12 66
12 55
40 12
34 12
56 12
14 13
13 54
57 13
13 58
35 13
34 13
15 14
16 14
14 57
14 58
34 14
16 15
17 15
18 15
34 15
18 17
19 17
23 17
18 19
20 18
19 20
23 19
30 19
21 20
22 21
24 23
23 30
29 23
31 23
24 25
24 28
24 30
24 29
31 24
26 25
25 27
25 28
29 25
26 27
26 67
26 69
26 68
28 27
29 28
29 30
31 29
31 30
32 31
61 31
62 31
60 31
32 33
32 41
32 62
32 61
60 32
34 33
33 36
40 33
33 42
33 45
33 44
33 47
33 49
33 55
33 58
33 41
61 33
34 35
34 36
34 38
34 43
34 41
34 45
34 46
34 47
34 44
34 49
34 48
34 51
34 50
34 64
34 65
34 66
34 52
34 53
34 54
34 55
34 58
34 57
40 34
34 56
34 39
34 63
60 34
35 36
35 37
35 38
39 35
63 35
62 35
37 36
43 36
45 36
46 36
47 36
42 36
44 36
49 36
54 36
50 36
51 36
64 36
36 59
36 65
36 66
38 36
41 36
40 36
39 36
63 36
56 36
38 37
39 37
63 37
39 38
63 38
62 38
40 39
39 56
39 63
40 41
40 45
40 46
40 47
40 48
40 51
40 50
40 64
40 65
40 66
40 52
40 53
40 54
40 55
40 56
40 63
41 42
41 44
41 45
41 47
41 49
41 55
41 58
61 41
43 42
42 45
42 47
42 44
42 49
60 42
43 44
43 49
43 48
43 55
45 44
47 44
44 49
46 45
45 47
45 48
45 55
45 64
56 45
46 47
46 50
46 54
46 51
46 64
46 65
46 48
46 66
46 53
46 52
46 55
56 46
47 48
47 55
47 64
56 47
49 48
51 48
52 48
53 48
54 48
48 55
56 48
50 49
49 64
49 65
49 55
50 51
50 64
50 65
50 66
51 52
51 64
51 65
51 66
56 51
53 52
52 55
56 52
53 54
53 55
56 53
54 55
56 55
56 57
56 59
63 56
60 56
57 58
60 57
58 59
60 59
60 61
62 60
61 62
64 65
64 66
65 66
68 67
67 69
68 69
70 20
70 71
70 75
70 72
70 21
70 73
70 74
71 20
71 75
71 74
71 72
71 21
71 73
72 75
72 74
72 21
72 73
72 22
73 75
73 74
73 21
73 22
74 75
74 18
74 19
74 20
74 26
74 27
74 28
74 30
74 29
74 68
74 21
74 22
75 26
75 68
